% Auto-generated by scripts/generate_dzn.py
% problem_type   = regex
% instance       = regex_61
% source_json    = instances_json/2_high_blowup/regex_61.json
% blowup         = 11.181818181818182
% representation = DFA

mode = 0;

var_count = 27;
Q = 123;
S = 3;
q0 = 1;
F = {77, 78, 79, 80, 81, 82, 83, 84, 85, 86, 87, 88, 89, 90, 91, 92, 93, 94, 95, 96, 97, 98, 99, 100, 101, 102, 103, 104, 105, 106, 107, 108, 109, 110, 111, 112, 113, 114, 115, 116, 117, 118, 119, 120, 121, 122, 123};
d_dfa = array2d(1..123, 1..3, [
  2, 1, 1,
  2, 3, 1,
  4, 1, 1,
  7, 6, 5,
  9, 8, 8,
  10, 8, 8,
  9, 11, 8,
  13, 12, 12,
  13, 14, 12,
  17, 16, 15,
  18, 12, 12,
  20, 19, 19,
  20, 21, 19,
  22, 19, 19,
  24, 23, 23,
  25, 23, 23,
  24, 26, 23,
  29, 28, 27,
  31, 30, 30,
  31, 32, 30,
  33, 30, 30,
  36, 35, 34,
  38, 37, 37,
  38, 39, 37,
  42, 41, 40,
  43, 37, 37,
  45, 44, 44,
  46, 44, 44,
  45, 47, 44,
  49, 48, 48,
  49, 50, 48,
  51, 48, 48,
  54, 53, 52,
  56, 55, 55,
  57, 55, 55,
  56, 58, 55,
  60, 59, 59,
  60, 61, 59,
  62, 59, 59,
  64, 63, 63,
  65, 63, 63,
  64, 66, 63,
  69, 68, 67,
  71, 70, 70,
  71, 72, 70,
  75, 74, 73,
  76, 70, 70,
  78, 77, 77,
  78, 79, 77,
  80, 77, 77,
  83, 82, 81,
  85, 84, 84,
  86, 84, 84,
  85, 87, 84,
  89, 88, 88,
  89, 90, 88,
  93, 92, 91,
  94, 88, 88,
  96, 95, 95,
  96, 97, 95,
  98, 95, 95,
  101, 100, 99,
  103, 102, 102,
  103, 104, 102,
  107, 106, 105,
  108, 102, 102,
  110, 109, 109,
  111, 109, 109,
  110, 112, 109,
  114, 113, 113,
  114, 115, 113,
  116, 113, 113,
  118, 117, 117,
  119, 117, 117,
  118, 120, 117,
  123, 122, 121,
  2, 1, 1,
  2, 3, 1,
  4, 1, 1,
  7, 6, 5,
  9, 8, 8,
  10, 8, 8,
  9, 11, 8,
  13, 12, 12,
  13, 14, 12,
  17, 16, 15,
  18, 12, 12,
  20, 19, 19,
  20, 21, 19,
  22, 19, 19,
  24, 23, 23,
  25, 23, 23,
  24, 26, 23,
  29, 28, 27,
  49, 48, 48,
  49, 50, 48,
  51, 48, 48,
  54, 53, 52,
  56, 55, 55,
  57, 55, 55,
  56, 58, 55,
  60, 59, 59,
  60, 61, 59,
  62, 59, 59,
  64, 63, 63,
  65, 63, 63,
  64, 66, 63,
  69, 68, 67,
  71, 70, 70,
  71, 72, 70,
  75, 74, 73,
  76, 70, 70,
  31, 30, 30,
  31, 32, 30,
  33, 30, 30,
  36, 35, 34,
  38, 37, 37,
  38, 39, 37,
  42, 41, 40,
  43, 37, 37,
  45, 44, 44,
  46, 44, 44,
  45, 47, 44
]);
d_nfa = array2d(1..123, 1..3, [
  {}, {}, {},
  {}, {}, {},
  {}, {}, {},
  {}, {}, {},
  {}, {}, {},
  {}, {}, {},
  {}, {}, {},
  {}, {}, {},
  {}, {}, {},
  {}, {}, {},
  {}, {}, {},
  {}, {}, {},
  {}, {}, {},
  {}, {}, {},
  {}, {}, {},
  {}, {}, {},
  {}, {}, {},
  {}, {}, {},
  {}, {}, {},
  {}, {}, {},
  {}, {}, {},
  {}, {}, {},
  {}, {}, {},
  {}, {}, {},
  {}, {}, {},
  {}, {}, {},
  {}, {}, {},
  {}, {}, {},
  {}, {}, {},
  {}, {}, {},
  {}, {}, {},
  {}, {}, {},
  {}, {}, {},
  {}, {}, {},
  {}, {}, {},
  {}, {}, {},
  {}, {}, {},
  {}, {}, {},
  {}, {}, {},
  {}, {}, {},
  {}, {}, {},
  {}, {}, {},
  {}, {}, {},
  {}, {}, {},
  {}, {}, {},
  {}, {}, {},
  {}, {}, {},
  {}, {}, {},
  {}, {}, {},
  {}, {}, {},
  {}, {}, {},
  {}, {}, {},
  {}, {}, {},
  {}, {}, {},
  {}, {}, {},
  {}, {}, {},
  {}, {}, {},
  {}, {}, {},
  {}, {}, {},
  {}, {}, {},
  {}, {}, {},
  {}, {}, {},
  {}, {}, {},
  {}, {}, {},
  {}, {}, {},
  {}, {}, {},
  {}, {}, {},
  {}, {}, {},
  {}, {}, {},
  {}, {}, {},
  {}, {}, {},
  {}, {}, {},
  {}, {}, {},
  {}, {}, {},
  {}, {}, {},
  {}, {}, {},
  {}, {}, {},
  {}, {}, {},
  {}, {}, {},
  {}, {}, {},
  {}, {}, {},
  {}, {}, {},
  {}, {}, {},
  {}, {}, {},
  {}, {}, {},
  {}, {}, {},
  {}, {}, {},
  {}, {}, {},
  {}, {}, {},
  {}, {}, {},
  {}, {}, {},
  {}, {}, {},
  {}, {}, {},
  {}, {}, {},
  {}, {}, {},
  {}, {}, {},
  {}, {}, {},
  {}, {}, {},
  {}, {}, {},
  {}, {}, {},
  {}, {}, {},
  {}, {}, {},
  {}, {}, {},
  {}, {}, {},
  {}, {}, {},
  {}, {}, {},
  {}, {}, {},
  {}, {}, {},
  {}, {}, {},
  {}, {}, {},
  {}, {}, {},
  {}, {}, {},
  {}, {}, {},
  {}, {}, {},
  {}, {}, {},
  {}, {}, {},
  {}, {}, {},
  {}, {}, {},
  {}, {}, {},
  {}, {}, {},
  {}, {}, {},
  {}, {}, {},
  {}, {}, {}
]);
